1333925
0,81,44,89,23,108,48,30,38,13,46,70,98,104,12,92,95,41,59,87,17,49,75,72,86,61,18,6,64,35,11,105,107,77,32,54,67,39,27,7,69,68,26,85,74,56,71,37,40,25,36,8,76,65,9,63,21,10,90,88,96,103,57,53,101,99,20,47,79,16,52,14,22,73,91,55,102,3,66,78,2,82,62,19,43,42,84,60,29,5,94,31,50,83,58,1,80,45,93,106,15,28,24,51,33,100,97,4,34,0